Route #1: 48 13 33 55 35 59 4 19
Route #2: 51 45 46 34 12 15
Route #3: 10 41 14 36 9 28 74 39 61 50
Route #4: 26 11 64 40 53 68 18 25
Route #5: 30 37 70 29 57 65
Route #6: 7 76 32 73 31 20 54 3 75 47
Route #7: 8 22 71 63 5 49 27
Route #8: 42 16 60 66 6 62 2
Route #9: 24 52 21 43 67 69 56 38 58 17
Route #10: 77 23 44 1 72
Cost 1264.7146685712269